WARNING: for repeatability, setting FPU to use double precision
============================[ Problem Statistics ]=============================
|                                                                             |
|  Number of variables:          4351                                         |
|  Number of clauses:           33289                                         |
|  Parse time:                   0.02 s                                       |
|  Eliminated clauses:           0.01 Mb                                      |
|  Simplification time:          0.02 s                                       |
|                                                                             |
============================[ Search Statistics ]==============================
| Conflicts |          ORIGINAL         |          LEARNT          | Progress |
|           |    Vars  Clauses Literals |    Limit  Clauses Lit/Cl |          |
===============================================================================
|       100 |     765     6173    16700 |     2263      100     17 | 73.500 % |
|       250 |     765     6173    16700 |     2489      250     17 | 73.500 % |
===============================================================================
restarts              : 4
conflicts             : 429            (11356 /sec)
decisions             : 1250           (0.00 % random) (33087 /sec)
propagations          : 19598          (518754 /sec)
conflict literals     : 9792           (6.80 % deleted)
Memory used           : 23.00 MB
CPU time              : 0.037779 s

SATISFIABLE
WARNING: for repeatability, setting FPU to use double precision
============================[ Problem Statistics ]=============================
|                                                                             |
|  Number of variables:          4351                                         |
|  Number of clauses:           33289                                         |
|  Parse time:                   0.01 s                                       |
|  Eliminated clauses:           0.01 Mb                                      |
|  Simplification time:          0.01 s                                       |
|                                                                             |
============================[ Search Statistics ]==============================
| Conflicts |          ORIGINAL         |          LEARNT          | Progress |
|           |    Vars  Clauses Literals |    Limit  Clauses Lit/Cl |          |
===============================================================================
|       100 |     765     6173    16700 |     2263      100     17 | 73.500 % |
|       250 |     765     6173    16700 |     2489      250     17 | 73.500 % |
===============================================================================
restarts              : 4
conflicts             : 429            (16486 /sec)
decisions             : 1250           (0.00 % random) (48036 /sec)
propagations          : 19598          (753132 /sec)
conflict literals     : 9792           (6.80 % deleted)
Memory used           : 23.00 MB
CPU time              : 0.026022 s

SATISFIABLE
